8
6
-1 3 -2 -2 -2 -2
0.0 0.0 0.0 0.0 -2.214123515 0.0 0.0 0.0
0 6 1 1 -1.0
0 6 2 2 1.0
1 3 1 1 1.0
1 3 2 2 -1.0
1 2 2 2 -1.0
2 4 1 1 1.0
2 4 2 2 -1.0
2 1 1 1 -1.0
3 2 3 2 -0.5
4 3 1 1 1.0
4 3 2 2 -1.0
4 2 1 1 -1.0
5 4 1 1 -1.0
5 4 2 2 1.0
5 2 2 1 -0.5
6 5 1 1 -1.0
6 5 2 2 1.0
6 2 3 1 -0.5
7 3 1 1 1.0
7 3 2 2 -1.0
7 6 1 1 -1.0
7 6 2 2 1.0
8 3 1 1 1.0
8 3 2 2 -1.0
8 2 3 3 -1.0
